N = 6;
H = 6;
T = 2;

avail = array3d(1..N, 1..H, 1..T, [9, 1, 10, 2, 3, 10, 7, 0, 3, 8, 4, 10, 8, 2, 8, 2, 7, 6, 5, 8, 7, 2, 9, 9, 8, 2, 4, 0, 3, 6, 0, 6, 0, 1, 9, 4, 10, 6, 0, 4, 5, 7, 5, 9, 2, 6, 6, 0, 2, 1, 3, 6, 8, 5, 5, 6, 10, 6, 5, 4, 8, 8, 9, 9, 8, 1, 3, 3, 5, 8, 3, 0]);

r = array2d(1..H, 1..T, [0, 2, 0, 2, 0, 2, 1, 2, 0, 2, 2, 2]);
